% Logging successfully configured
%%%mzn-stat: initTime=0.115623091
%%%mzn-stat: objective=654
%%%mzn-stat: nodes=326
%%%mzn-stat: restarts=0
%%%mzn-stat: peakDepth=298
%%%mzn-stat: solveTime=0.006708377
%%%mzn-stat: variables=636
%%%mzn-stat: propagators=436
%%%mzn-stat: failures=13
%%%mzn-stat: propagations=2073
%%%mzn-stat: nogoods=13
%%%mzn-stat: numAtomicConstraintsPropagated=0
%%%mzn-stat: allDifferentNumber1PropagationsTotal=145
%%%mzn-stat: allDifferentNumber1PropagationsThatFoundConflict=0
%%%mzn-stat: allDifferentNumber1PropagationsThatPruned=79
%%%mzn-stat: allDifferentNumber1TotalValuesPruned=382
%%%mzn-stat: allDifferentNumber1TotalHallSetSizeConflict=0
%%%mzn-stat: allDifferentNumber1NumberOfConflicts=0
%%%mzn-stat: allDifferentNumber1MaxHallSetSizeConflict=0
%%%mzn-stat: allDifferentNumber1TotalPruningHallSetSize=1281
%%%mzn-stat: allDifferentNumber1NumberOfPruningExplanations=382
%%%mzn-stat: allDifferentNumber1MaxPruningHallSetSize=34
%%%mzn-stat: allDifferentNumber1TotalFixedEdgesAtConflict=0
%%%mzn-stat: allDifferentNumber1TotalVarsInvolvedInPruning=279
%%%mzn-stat: allDifferentNumber1MaxValuesPrunedFromSingleVar=5
%%%mzn-stat: allDifferentNumber1TotalSccSizeAtPruning=393
%%%mzn-stat: allDifferentNumber1NumberOfSccPruningCalls=79
%%%mzn-stat: circuitNumber2PropagationsThatFoundConflict=13
%%%mzn-stat: circuitNumber2TotalFixedEdgesAtConflict=462
%%%mzn-stat: circuitNumber2NumberOfConflicts=13
%%%mzn-stat: circuitNumber2PropagationsThatPruned=17
%%%mzn-stat: circuitNumber2PropagationsTotal=84
%%%mzn-stat: AverageConflictSize=5.6923076923076925
%%%mzn-stat: NumUnitNogoodsLearned=0
%%%mzn-stat: AverageLearnedNogoodLength=8.923076923076923
%%%mzn-stat: AverageBacktrackAmount=0
%%%mzn-stat: AverageLbd=4.615384615384615
%%%mzn-stat: 2AutonomousSearchNumBackupCalled=275
%%%mzn-stat: 2AutonomousSearchNumPredicatesRemoved=0
%%%mzn-stat: 2AutonomousSearchNumCalls=276
%%%mzn-stat: 2AutonomousSearchNumPredicatesAdded=389
%%%mzn-stat: 2AutonomousSearchAverageSizeOfHeap=1.4094202898550725
%%%mzn-stat: 2AutonomousSearchNumAssignedPredicatesEncountered=389
%%%mzn-stat-end
maxleg = 654;
succ = array1d(1..50,[7, 8, 4, 11, 14, 20, 5, 21, 29, 12, 16, 2, 15, 24, 26, 49, 3, 25, 10, 13, 42, 31, 47, 37, 43, 23, 34, 17, 39, 40, 38, 28, 44, 35, 45, 27, 9, 6, 41, 19, 33, 48, 22, 46, 32, 50, 30, 36, 1, 18]);
% time elapsed: 9.30 s
----------
%%%mzn-stat: initTime=0.115623091
%%%mzn-stat: objective=342
%%%mzn-stat: nodes=640
%%%mzn-stat: restarts=0
%%%mzn-stat: peakDepth=303
%%%mzn-stat: solveTime=0.011520929
%%%mzn-stat: variables=636
%%%mzn-stat: propagators=436
%%%mzn-stat: failures=18
%%%mzn-stat: propagations=3066
%%%mzn-stat: nogoods=18
%%%mzn-stat: numAtomicConstraintsPropagated=0
%%%mzn-stat: allDifferentNumber1PropagationsTotal=234
%%%mzn-stat: allDifferentNumber1PropagationsThatFoundConflict=0
%%%mzn-stat: allDifferentNumber1PropagationsThatPruned=128
%%%mzn-stat: allDifferentNumber1TotalValuesPruned=620
%%%mzn-stat: allDifferentNumber1TotalHallSetSizeConflict=0
%%%mzn-stat: allDifferentNumber1NumberOfConflicts=0
%%%mzn-stat: allDifferentNumber1MaxHallSetSizeConflict=0
%%%mzn-stat: allDifferentNumber1TotalPruningHallSetSize=1992
%%%mzn-stat: allDifferentNumber1NumberOfPruningExplanations=620
%%%mzn-stat: allDifferentNumber1MaxPruningHallSetSize=34
%%%mzn-stat: allDifferentNumber1TotalFixedEdgesAtConflict=0
%%%mzn-stat: allDifferentNumber1TotalVarsInvolvedInPruning=466
%%%mzn-stat: allDifferentNumber1MaxValuesPrunedFromSingleVar=5
%%%mzn-stat: allDifferentNumber1TotalSccSizeAtPruning=694
%%%mzn-stat: allDifferentNumber1NumberOfSccPruningCalls=128
%%%mzn-stat: circuitNumber2PropagationsThatFoundConflict=18
%%%mzn-stat: circuitNumber2TotalFixedEdgesAtConflict=622
%%%mzn-stat: circuitNumber2NumberOfConflicts=18
%%%mzn-stat: circuitNumber2PropagationsThatPruned=27
%%%mzn-stat: circuitNumber2PropagationsTotal=134
%%%mzn-stat: AverageConflictSize=5.222222222222222
%%%mzn-stat: NumUnitNogoodsLearned=0
%%%mzn-stat: AverageLearnedNogoodLength=10.833333333333334
%%%mzn-stat: AverageBacktrackAmount=0
%%%mzn-stat: AverageLbd=5.5
%%%mzn-stat: 2AutonomousSearchNumBackupCalled=550
%%%mzn-stat: 2AutonomousSearchNumPredicatesRemoved=0
%%%mzn-stat: 2AutonomousSearchNumCalls=552
%%%mzn-stat: 2AutonomousSearchNumPredicatesAdded=818
%%%mzn-stat: 2AutonomousSearchAverageSizeOfHeap=2.0217391304347827
%%%mzn-stat: 2AutonomousSearchNumAssignedPredicatesEncountered=1116
%%%mzn-stat-end
maxleg = 342;
succ = array1d(1..50,[7, 8, 4, 11, 14, 20, 5, 21, 29, 12, 16, 2, 15, 28, 26, 32, 3, 13, 17, 18, 23, 25, 47, 49, 43, 33, 10, 45, 39, 38, 22, 40, 50, 27, 36, 48, 24, 31, 41, 35, 37, 34, 6, 9, 19, 44, 30, 42, 1, 46]);
% time elapsed: 9.30 s
----------
%%%mzn-stat: initTime=0.115623091
%%%mzn-stat: objective=336
%%%mzn-stat: nodes=1080
%%%mzn-stat: restarts=0
%%%mzn-stat: peakDepth=303
%%%mzn-stat: solveTime=0.090297988
%%%mzn-stat: variables=636
%%%mzn-stat: propagators=436
%%%mzn-stat: failures=158
%%%mzn-stat: propagations=9978
%%%mzn-stat: nogoods=158
%%%mzn-stat: numAtomicConstraintsPropagated=0
%%%mzn-stat: allDifferentNumber1PropagationsTotal=1098
%%%mzn-stat: allDifferentNumber1PropagationsThatFoundConflict=0
%%%mzn-stat: allDifferentNumber1PropagationsThatPruned=707
%%%mzn-stat: allDifferentNumber1TotalValuesPruned=2556
%%%mzn-stat: allDifferentNumber1TotalHallSetSizeConflict=0
%%%mzn-stat: allDifferentNumber1NumberOfConflicts=0
%%%mzn-stat: allDifferentNumber1MaxHallSetSizeConflict=0
%%%mzn-stat: allDifferentNumber1TotalPruningHallSetSize=6555
%%%mzn-stat: allDifferentNumber1NumberOfPruningExplanations=2556
%%%mzn-stat: allDifferentNumber1MaxPruningHallSetSize=34
%%%mzn-stat: allDifferentNumber1TotalFixedEdgesAtConflict=0
%%%mzn-stat: allDifferentNumber1TotalVarsInvolvedInPruning=1989
%%%mzn-stat: allDifferentNumber1MaxValuesPrunedFromSingleVar=5
%%%mzn-stat: allDifferentNumber1TotalSccSizeAtPruning=3579
%%%mzn-stat: allDifferentNumber1NumberOfSccPruningCalls=707
%%%mzn-stat: circuitNumber2PropagationsThatFoundConflict=158
%%%mzn-stat: circuitNumber2TotalFixedEdgesAtConflict=6941
%%%mzn-stat: circuitNumber2NumberOfConflicts=158
%%%mzn-stat: circuitNumber2PropagationsThatPruned=286
%%%mzn-stat: circuitNumber2PropagationsTotal=736
%%%mzn-stat: AverageConflictSize=37.90506329113924
%%%mzn-stat: NumUnitNogoodsLearned=0
%%%mzn-stat: AverageLearnedNogoodLength=28.4873417721519
%%%mzn-stat: AverageBacktrackAmount=0
%%%mzn-stat: AverageLbd=18.651898734177216
%%%mzn-stat: 2AutonomousSearchNumBackupCalled=807
%%%mzn-stat: 2AutonomousSearchNumPredicatesRemoved=0
%%%mzn-stat: 2AutonomousSearchNumCalls=810
%%%mzn-stat: 2AutonomousSearchNumPredicatesAdded=1936
%%%mzn-stat: 2AutonomousSearchAverageSizeOfHeap=3.0703703703703704
%%%mzn-stat: 2AutonomousSearchNumAssignedPredicatesEncountered=2487
%%%mzn-stat-end
maxleg = 336;
succ = array1d(1..50,[7, 8, 4, 11, 14, 20, 5, 21, 29, 19, 16, 2, 15, 24, 26, 49, 3, 25, 34, 23, 42, 6, 47, 37, 43, 33, 10, 17, 44, 38, 12, 28, 50, 35, 40, 27, 39, 31, 41, 45, 9, 48, 22, 46, 32, 13, 30, 36, 1, 18]);
% time elapsed: 9.37 s
----------
%%%mzn-stat: initTime=0.115623091
%%%mzn-stat: objective=307
%%%mzn-stat: nodes=1362
%%%mzn-stat: restarts=0
%%%mzn-stat: peakDepth=303
%%%mzn-stat: solveTime=0.093461121
%%%mzn-stat: variables=636
%%%mzn-stat: propagators=436
%%%mzn-stat: failures=158
%%%mzn-stat: propagations=10784
%%%mzn-stat: nogoods=158
%%%mzn-stat: numAtomicConstraintsPropagated=0
%%%mzn-stat: allDifferentNumber1PropagationsTotal=1151
%%%mzn-stat: allDifferentNumber1PropagationsThatFoundConflict=0
%%%mzn-stat: allDifferentNumber1PropagationsThatPruned=735
%%%mzn-stat: allDifferentNumber1TotalValuesPruned=2716
%%%mzn-stat: allDifferentNumber1TotalHallSetSizeConflict=0
%%%mzn-stat: allDifferentNumber1NumberOfConflicts=0
%%%mzn-stat: allDifferentNumber1MaxHallSetSizeConflict=0
%%%mzn-stat: allDifferentNumber1TotalPruningHallSetSize=7061
%%%mzn-stat: allDifferentNumber1NumberOfPruningExplanations=2716
%%%mzn-stat: allDifferentNumber1MaxPruningHallSetSize=34
%%%mzn-stat: allDifferentNumber1TotalFixedEdgesAtConflict=0
%%%mzn-stat: allDifferentNumber1TotalVarsInvolvedInPruning=2115
%%%mzn-stat: allDifferentNumber1MaxValuesPrunedFromSingleVar=5
%%%mzn-stat: allDifferentNumber1TotalSccSizeAtPruning=3702
%%%mzn-stat: allDifferentNumber1NumberOfSccPruningCalls=735
%%%mzn-stat: circuitNumber2PropagationsThatFoundConflict=158
%%%mzn-stat: circuitNumber2TotalFixedEdgesAtConflict=6941
%%%mzn-stat: circuitNumber2NumberOfConflicts=158
%%%mzn-stat: circuitNumber2PropagationsThatPruned=289
%%%mzn-stat: circuitNumber2PropagationsTotal=763
%%%mzn-stat: AverageConflictSize=37.90506329113924
%%%mzn-stat: NumUnitNogoodsLearned=0
%%%mzn-stat: AverageLearnedNogoodLength=28.4873417721519
%%%mzn-stat: AverageBacktrackAmount=0
%%%mzn-stat: AverageLbd=18.651898734177216
%%%mzn-stat: 2AutonomousSearchNumBackupCalled=1064
%%%mzn-stat: 2AutonomousSearchNumPredicatesRemoved=0
%%%mzn-stat: 2AutonomousSearchNumCalls=1068
%%%mzn-stat: 2AutonomousSearchNumPredicatesAdded=1936
%%%mzn-stat: 2AutonomousSearchAverageSizeOfHeap=3.6123595505617976
%%%mzn-stat: 2AutonomousSearchNumAssignedPredicatesEncountered=3858
%%%mzn-stat-end
maxleg = 307;
succ = array1d(1..50,[7, 8, 4, 11, 14, 20, 5, 21, 29, 19, 16, 2, 15, 24, 26, 49, 3, 25, 34, 23, 42, 6, 47, 37, 43, 44, 10, 17, 39, 38, 12, 28, 50, 35, 40, 27, 9, 31, 41, 45, 33, 48, 22, 46, 32, 18, 30, 36, 1, 13]);
% time elapsed: 9.38 s
----------
%%%mzn-stat: initTime=0.115623091
%%%mzn-stat: objective=299
%%%mzn-stat: nodes=1655
%%%mzn-stat: restarts=0
%%%mzn-stat: peakDepth=303
%%%mzn-stat: solveTime=0.096646456
%%%mzn-stat: variables=636
%%%mzn-stat: propagators=436
%%%mzn-stat: failures=159
%%%mzn-stat: propagations=11621
%%%mzn-stat: nogoods=159
%%%mzn-stat: numAtomicConstraintsPropagated=0
%%%mzn-stat: allDifferentNumber1PropagationsTotal=1211
%%%mzn-stat: allDifferentNumber1PropagationsThatFoundConflict=0
%%%mzn-stat: allDifferentNumber1PropagationsThatPruned=767
%%%mzn-stat: allDifferentNumber1TotalValuesPruned=2880
%%%mzn-stat: allDifferentNumber1TotalHallSetSizeConflict=0
%%%mzn-stat: allDifferentNumber1NumberOfConflicts=0
%%%mzn-stat: allDifferentNumber1MaxHallSetSizeConflict=0
%%%mzn-stat: allDifferentNumber1TotalPruningHallSetSize=7781
%%%mzn-stat: allDifferentNumber1NumberOfPruningExplanations=2880
%%%mzn-stat: allDifferentNumber1MaxPruningHallSetSize=42
%%%mzn-stat: allDifferentNumber1TotalFixedEdgesAtConflict=0
%%%mzn-stat: allDifferentNumber1TotalVarsInvolvedInPruning=2251
%%%mzn-stat: allDifferentNumber1MaxValuesPrunedFromSingleVar=5
%%%mzn-stat: allDifferentNumber1TotalSccSizeAtPruning=4061
%%%mzn-stat: allDifferentNumber1NumberOfSccPruningCalls=767
%%%mzn-stat: circuitNumber2PropagationsThatFoundConflict=159
%%%mzn-stat: circuitNumber2TotalFixedEdgesAtConflict=6959
%%%mzn-stat: circuitNumber2NumberOfConflicts=159
%%%mzn-stat: circuitNumber2PropagationsThatPruned=295
%%%mzn-stat: circuitNumber2PropagationsTotal=796
%%%mzn-stat: AverageConflictSize=37.704402515723274
%%%mzn-stat: NumUnitNogoodsLearned=0
%%%mzn-stat: AverageLearnedNogoodLength=28.51572327044025
%%%mzn-stat: AverageBacktrackAmount=0
%%%mzn-stat: AverageLbd=18.60377358490566
%%%mzn-stat: 2AutonomousSearchNumBackupCalled=1329
%%%mzn-stat: 2AutonomousSearchNumPredicatesRemoved=0
%%%mzn-stat: 2AutonomousSearchNumCalls=1334
%%%mzn-stat: 2AutonomousSearchNumPredicatesAdded=2045
%%%mzn-stat: 2AutonomousSearchAverageSizeOfHeap=3.919790104947526
%%%mzn-stat: 2AutonomousSearchNumAssignedPredicatesEncountered=5229
%%%mzn-stat-end
maxleg = 299;
succ = array1d(1..50,[7, 8, 4, 11, 14, 20, 5, 21, 29, 19, 16, 31, 15, 28, 26, 32, 3, 13, 34, 18, 23, 6, 47, 49, 43, 33, 12, 17, 39, 38, 2, 40, 50, 27, 36, 48, 24, 25, 41, 45, 37, 10, 22, 9, 35, 44, 30, 42, 1, 46]);
% time elapsed: 9.38 s
----------
%%%mzn-stat: initTime=0.115623091
%%%mzn-stat: objective=279
%%%mzn-stat: nodes=1933
%%%mzn-stat: restarts=0
%%%mzn-stat: peakDepth=303
%%%mzn-stat: solveTime=0.099349294
%%%mzn-stat: variables=636
%%%mzn-stat: propagators=436
%%%mzn-stat: failures=159
%%%mzn-stat: propagations=12438
%%%mzn-stat: nogoods=159
%%%mzn-stat: numAtomicConstraintsPropagated=0
%%%mzn-stat: allDifferentNumber1PropagationsTotal=1267
%%%mzn-stat: allDifferentNumber1PropagationsThatFoundConflict=0
%%%mzn-stat: allDifferentNumber1PropagationsThatPruned=797
%%%mzn-stat: allDifferentNumber1TotalValuesPruned=3031
%%%mzn-stat: allDifferentNumber1TotalHallSetSizeConflict=0
%%%mzn-stat: allDifferentNumber1NumberOfConflicts=0
%%%mzn-stat: allDifferentNumber1MaxHallSetSizeConflict=0
%%%mzn-stat: allDifferentNumber1TotalPruningHallSetSize=8396
%%%mzn-stat: allDifferentNumber1NumberOfPruningExplanations=3031
%%%mzn-stat: allDifferentNumber1MaxPruningHallSetSize=48
%%%mzn-stat: allDifferentNumber1TotalFixedEdgesAtConflict=0
%%%mzn-stat: allDifferentNumber1TotalVarsInvolvedInPruning=2377
%%%mzn-stat: allDifferentNumber1MaxValuesPrunedFromSingleVar=5
%%%mzn-stat: allDifferentNumber1TotalSccSizeAtPruning=4396
%%%mzn-stat: allDifferentNumber1NumberOfSccPruningCalls=797
%%%mzn-stat: circuitNumber2PropagationsThatFoundConflict=159
%%%mzn-stat: circuitNumber2TotalFixedEdgesAtConflict=6959
%%%mzn-stat: circuitNumber2NumberOfConflicts=159
%%%mzn-stat: circuitNumber2PropagationsThatPruned=301
%%%mzn-stat: circuitNumber2PropagationsTotal=827
%%%mzn-stat: AverageConflictSize=37.704402515723274
%%%mzn-stat: NumUnitNogoodsLearned=0
%%%mzn-stat: AverageLearnedNogoodLength=28.51572327044025
%%%mzn-stat: AverageBacktrackAmount=0
%%%mzn-stat: AverageLbd=18.60377358490566
%%%mzn-stat: 2AutonomousSearchNumBackupCalled=1581
%%%mzn-stat: 2AutonomousSearchNumPredicatesRemoved=0
%%%mzn-stat: 2AutonomousSearchNumCalls=1587
%%%mzn-stat: 2AutonomousSearchNumPredicatesAdded=2045
%%%mzn-stat: 2AutonomousSearchAverageSizeOfHeap=4.158790170132325
%%%mzn-stat: 2AutonomousSearchNumAssignedPredicatesEncountered=6600
%%%mzn-stat-end
maxleg = 279;
succ = array1d(1..50,[7, 8, 4, 11, 14, 20, 5, 21, 29, 19, 16, 31, 15, 28, 26, 32, 3, 13, 34, 18, 23, 6, 47, 49, 43, 33, 12, 17, 41, 38, 2, 40, 50, 27, 36, 48, 24, 25, 37, 45, 39, 10, 22, 9, 35, 44, 30, 42, 1, 46]);
% time elapsed: 9.38 s
----------
%%%mzn-stat: initTime=0.115623091
%%%mzn-stat: objective=267
%%%mzn-stat: nodes=2213
%%%mzn-stat: restarts=0
%%%mzn-stat: peakDepth=303
%%%mzn-stat: solveTime=0.102892978
%%%mzn-stat: variables=636
%%%mzn-stat: propagators=436
%%%mzn-stat: failures=160
%%%mzn-stat: propagations=13268
%%%mzn-stat: nogoods=160
%%%mzn-stat: numAtomicConstraintsPropagated=0
%%%mzn-stat: allDifferentNumber1PropagationsTotal=1325
%%%mzn-stat: allDifferentNumber1PropagationsThatFoundConflict=0
%%%mzn-stat: allDifferentNumber1PropagationsThatPruned=828
%%%mzn-stat: allDifferentNumber1TotalValuesPruned=3188
%%%mzn-stat: allDifferentNumber1TotalHallSetSizeConflict=0
%%%mzn-stat: allDifferentNumber1NumberOfConflicts=0
%%%mzn-stat: allDifferentNumber1MaxHallSetSizeConflict=0
%%%mzn-stat: allDifferentNumber1TotalPruningHallSetSize=9114
%%%mzn-stat: allDifferentNumber1NumberOfPruningExplanations=3188
%%%mzn-stat: allDifferentNumber1MaxPruningHallSetSize=48
%%%mzn-stat: allDifferentNumber1TotalFixedEdgesAtConflict=0
%%%mzn-stat: allDifferentNumber1TotalVarsInvolvedInPruning=2505
%%%mzn-stat: allDifferentNumber1MaxValuesPrunedFromSingleVar=5
%%%mzn-stat: allDifferentNumber1TotalSccSizeAtPruning=4779
%%%mzn-stat: allDifferentNumber1NumberOfSccPruningCalls=828
%%%mzn-stat: circuitNumber2PropagationsThatFoundConflict=160
%%%mzn-stat: circuitNumber2TotalFixedEdgesAtConflict=6977
%%%mzn-stat: circuitNumber2NumberOfConflicts=160
%%%mzn-stat: circuitNumber2PropagationsThatPruned=307
%%%mzn-stat: circuitNumber2PropagationsTotal=859
%%%mzn-stat: AverageConflictSize=37.50625
%%%mzn-stat: NumUnitNogoodsLearned=0
%%%mzn-stat: AverageLearnedNogoodLength=28.53125
%%%mzn-stat: AverageBacktrackAmount=0
%%%mzn-stat: AverageLbd=18.55625
%%%mzn-stat: 2AutonomousSearchNumBackupCalled=1834
%%%mzn-stat: 2AutonomousSearchNumPredicatesRemoved=0
%%%mzn-stat: 2AutonomousSearchNumCalls=1841
%%%mzn-stat: 2AutonomousSearchNumPredicatesAdded=2152
%%%mzn-stat: 2AutonomousSearchAverageSizeOfHeap=4.329712112982075
%%%mzn-stat: 2AutonomousSearchNumAssignedPredicatesEncountered=7971
%%%mzn-stat-end
maxleg = 267;
succ = array1d(1..50,[7, 8, 4, 11, 14, 22, 5, 21, 29, 19, 16, 31, 15, 28, 26, 32, 3, 13, 34, 18, 23, 20, 47, 49, 43, 33, 12, 17, 41, 38, 2, 40, 50, 27, 36, 48, 24, 25, 37, 45, 39, 10, 6, 9, 35, 44, 30, 42, 1, 46]);
% time elapsed: 9.40 s
----------
%%%mzn-stat: initTime=0.115623091
%%%mzn-stat: objective=252
%%%mzn-stat: nodes=2501
%%%mzn-stat: restarts=0
%%%mzn-stat: peakDepth=303
%%%mzn-stat: solveTime=0.106279401
%%%mzn-stat: variables=636
%%%mzn-stat: propagators=436
%%%mzn-stat: failures=161
%%%mzn-stat: propagations=14199
%%%mzn-stat: nogoods=161
%%%mzn-stat: numAtomicConstraintsPropagated=0
%%%mzn-stat: allDifferentNumber1PropagationsTotal=1399
%%%mzn-stat: allDifferentNumber1PropagationsThatFoundConflict=0
%%%mzn-stat: allDifferentNumber1PropagationsThatPruned=869
%%%mzn-stat: allDifferentNumber1TotalValuesPruned=3356
%%%mzn-stat: allDifferentNumber1TotalHallSetSizeConflict=0
%%%mzn-stat: allDifferentNumber1NumberOfConflicts=0
%%%mzn-stat: allDifferentNumber1MaxHallSetSizeConflict=0
%%%mzn-stat: allDifferentNumber1TotalPruningHallSetSize=9759
%%%mzn-stat: allDifferentNumber1NumberOfPruningExplanations=3356
%%%mzn-stat: allDifferentNumber1MaxPruningHallSetSize=48
%%%mzn-stat: allDifferentNumber1TotalFixedEdgesAtConflict=0
%%%mzn-stat: allDifferentNumber1TotalVarsInvolvedInPruning=2644
%%%mzn-stat: allDifferentNumber1MaxValuesPrunedFromSingleVar=5
%%%mzn-stat: allDifferentNumber1TotalSccSizeAtPruning=5168
%%%mzn-stat: allDifferentNumber1NumberOfSccPruningCalls=869
%%%mzn-stat: circuitNumber2PropagationsThatFoundConflict=161
%%%mzn-stat: circuitNumber2TotalFixedEdgesAtConflict=7022
%%%mzn-stat: circuitNumber2NumberOfConflicts=161
%%%mzn-stat: circuitNumber2PropagationsThatPruned=317
%%%mzn-stat: circuitNumber2PropagationsTotal=902
%%%mzn-stat: AverageConflictSize=37.298136645962735
%%%mzn-stat: NumUnitNogoodsLearned=0
%%%mzn-stat: AverageLearnedNogoodLength=28.422360248447205
%%%mzn-stat: AverageBacktrackAmount=0
%%%mzn-stat: AverageLbd=18.47826086956522
%%%mzn-stat: 2AutonomousSearchNumBackupCalled=2090
%%%mzn-stat: 2AutonomousSearchNumPredicatesRemoved=0
%%%mzn-stat: 2AutonomousSearchNumCalls=2098
%%%mzn-stat: 2AutonomousSearchNumPredicatesAdded=2226
%%%mzn-stat: 2AutonomousSearchAverageSizeOfHeap=4.465204957102002
%%%mzn-stat: 2AutonomousSearchNumAssignedPredicatesEncountered=9368
%%%mzn-stat-end
maxleg = 252;
succ = array1d(1..50,[7, 8, 4, 11, 14, 22, 5, 21, 29, 19, 16, 31, 15, 28, 26, 32, 3, 13, 34, 18, 23, 20, 47, 49, 43, 39, 12, 17, 37, 38, 2, 40, 50, 27, 36, 48, 24, 25, 41, 45, 33, 10, 6, 9, 35, 44, 30, 42, 1, 46]);
% time elapsed: 9.40 s
----------
==========
% time elapsed: 9.40 s
%%%mzn-stat: initTime=0.115623091
%%%mzn-stat: objective=252
%%%mzn-stat: nodes=2501
%%%mzn-stat: restarts=0
%%%mzn-stat: peakDepth=303
%%%mzn-stat: solveTime=0.10656211
%%%mzn-stat: variables=636
%%%mzn-stat: propagators=436
%%%mzn-stat: failures=162
%%%mzn-stat: propagations=14284
%%%mzn-stat: nogoods=162
%%%mzn-stat: numAtomicConstraintsPropagated=0
%%%mzn-stat: allDifferentNumber1PropagationsTotal=1400
%%%mzn-stat: allDifferentNumber1PropagationsThatFoundConflict=0
%%%mzn-stat: allDifferentNumber1PropagationsThatPruned=870
%%%mzn-stat: allDifferentNumber1TotalValuesPruned=3370
%%%mzn-stat: allDifferentNumber1TotalHallSetSizeConflict=0
%%%mzn-stat: allDifferentNumber1NumberOfConflicts=0
%%%mzn-stat: allDifferentNumber1MaxHallSetSizeConflict=0
%%%mzn-stat: allDifferentNumber1TotalPruningHallSetSize=10060
%%%mzn-stat: allDifferentNumber1NumberOfPruningExplanations=3370
%%%mzn-stat: allDifferentNumber1MaxPruningHallSetSize=49
%%%mzn-stat: allDifferentNumber1TotalFixedEdgesAtConflict=0
%%%mzn-stat: allDifferentNumber1TotalVarsInvolvedInPruning=2652
%%%mzn-stat: allDifferentNumber1MaxValuesPrunedFromSingleVar=5
%%%mzn-stat: allDifferentNumber1TotalSccSizeAtPruning=5263
%%%mzn-stat: allDifferentNumber1NumberOfSccPruningCalls=870
%%%mzn-stat: circuitNumber2PropagationsThatFoundConflict=162
%%%mzn-stat: circuitNumber2TotalFixedEdgesAtConflict=7026
%%%mzn-stat: circuitNumber2NumberOfConflicts=162
%%%mzn-stat: circuitNumber2PropagationsThatPruned=317
%%%mzn-stat: circuitNumber2PropagationsTotal=903
%%%mzn-stat: AverageConflictSize=37.08024691358025
%%%mzn-stat: NumUnitNogoodsLearned=1
%%%mzn-stat: AverageLearnedNogoodLength=28.253086419753085
%%%mzn-stat: AverageBacktrackAmount=0
%%%mzn-stat: AverageLbd=18.37037037037037
%%%mzn-stat: 2AutonomousSearchNumBackupCalled=2090
%%%mzn-stat: 2AutonomousSearchNumPredicatesRemoved=0
%%%mzn-stat: 2AutonomousSearchNumCalls=2098
%%%mzn-stat: 2AutonomousSearchNumPredicatesAdded=2437
%%%mzn-stat: 2AutonomousSearchAverageSizeOfHeap=4.465204957102002
%%%mzn-stat: 2AutonomousSearchNumAssignedPredicatesEncountered=9368
%%%mzn-stat-end
